
Gurobi 13.0.2 (win64) logging started Thu Jul 23 16:16:23 2026

Set parameter LogFile to value "E:\codes\ExactEBRP\results\gf_gurobi_performance_recovery_round29\runs\stage2__moderate_seed4302__c3_replica__300s\external\native_logs\R.0_lp.gurobi.log"
Gurobi Optimizer version 13.0.2 build v13.0.2rc1 (win64 - Windows 10.0 (19045.2))

CPU model: 12th Gen Intel(R) Core(TM) i7-12700KF, instruction set [SSE2|AVX|AVX2]
Thread count: 12 physical cores, 20 logical processors, using up to 1 threads

Non-default parameters:
TimeLimit  258.3286212
MIPGap  0
MIPGapAbs  0
LogToConsole  0
Threads  1

Optimize a model with 11919 rows, 3378 columns and 67134 nonzeros (Min)
Model fingerprint: 0x34a9bb92
Model has 21 linear objective coefficients
Coefficient statistics:
  Matrix range     [7e-03, 2e+04]
  Objective range  [7e-03, 1e+00]
  Bounds range     [2e-02, 1e+02]
  RHS range        [2e-02, 5e+04]

Presolve removed 903 rows and 111 columns
Presolve time: 0.04s
Presolved: 11016 rows, 3412 columns, 63978 nonzeros

Iteration    Objective       Primal Inf.    Dual Inf.      Time
       0    0.0000000e+00   4.301476e+02   0.000000e+00      0s
    1415    0.0000000e+00   0.000000e+00   0.000000e+00      0s

Solved in 1415 iterations and 0.10 seconds (0.30 work units)
Optimal objective  0.000000000e+00

User-callback calls 1560, time in user-callback 0.00 sec
